<?xml version = "1.0" encoding="UTF-8" standalone="yes"?>
<CPLEXSolution version="1.2">
 <header
   problemName="IloCplex"
   solutionName="p0"
   solutionIndex="-1"
   objectiveValue="21549960"
   solutionTypeValue="3"
   solutionTypeString="primal"
   solutionStatusValue="127"
   solutionStatusString="integer feasible solution"
   solutionMethodString="mip"
   primalFeasible="0"
   dualFeasible="0"
   writeLevel="3"/>
 <quality
   epInt="1.0000000000000001e-05"
   epRHS="9.9999999999999995e-07"
   maxIntInfeas="0"
   maxPrimalInfeas="0"
   maxX="1240"
   maxSlack="1090"/>
 <variables>
  <variable index="0" value="1240"/>
  <variable index="1" value="1240"/>
  <variable index="5" value="1240"/>
  <variable index="6" value="1240"/>
  <variable index="7" value="1240"/>
  <variable index="8" value="1240"/>
  <variable index="9" value="1240"/>
  <variable index="14" value="1240"/>
  <variable index="32" value="1"/>
  <variable index="290" value="1"/>
  <variable index="398" value="1"/>
  <variable index="490" value="1"/>
  <variable index="765" value="1"/>
  <variable index="904" value="1"/>
  <variable index="978" value="1"/>
  <variable index="1160" value="1"/>
  <variable index="1249" value="1"/>
  <variable index="1492" value="1"/>
  <variable index="1605" value="1"/>
  <variable index="1711" value="1"/>
  <variable index="1855" value="1"/>
  <variable index="2078" value="1"/>
  <variable index="2171" value="1"/>
  <variable index="2349" value="1"/>
  <variable index="2431" value="1"/>
  <variable index="2711" value="1"/>
  <variable index="2785" value="1"/>
  <variable index="2936" value="1"/>
  <variable index="3048" value="1"/>
  <variable index="3306" value="1"/>
  <variable index="3347" value="1"/>
  <variable index="3480" value="1"/>
  <variable index="3672" value="1"/>
  <variable index="3826" value="1"/>
  <variable index="4035" value="1"/>
  <variable index="4202" value="1"/>
  <variable index="4235" value="1"/>
  <variable index="4415" value="1"/>
  <variable index="4616" value="1"/>
  <variable index="4702" value="1"/>
  <variable index="4889" value="1"/>
  <variable index="5010" value="1"/>
  <variable index="5122" value="1"/>
  <variable index="5395" value="1"/>
  <variable index="5548" value="1"/>
  <variable index="5712" value="1"/>
  <variable index="5796" value="1"/>
  <variable index="5989" value="1"/>
  <variable index="6038" value="1"/>
  <variable index="6212" value="1"/>
  <variable index="6433" value="1"/>
  <variable index="6525" value="1"/>
  <variable index="6626" value="1"/>
  <variable index="6814" value="1"/>
  <variable index="6951" value="1"/>
  <variable index="7207" value="1"/>
  <variable index="7224" value="1"/>
  <variable index="7462" value="1"/>
  <variable index="7611" value="1"/>
  <variable index="7754" value="1"/>
  <variable index="7936" value="1"/>
  <variable index="8053" value="1"/>
  <variable index="8218" value="1"/>
  <variable index="8388" value="1"/>
  <variable index="8480" value="1"/>
  <variable index="8570" value="1"/>
  <variable index="8850" value="1"/>
  <variable index="8887" value="1"/>
  <variable index="9018" value="1"/>
  <variable index="9232" value="1"/>
  <variable index="9459" value="1"/>
  <variable index="9467" value="1"/>
  <variable index="9627" value="1"/>
  <variable index="9789" value="1"/>
  <variable index="10006" value="1"/>
  <variable index="10069" value="1"/>
  <variable index="10273" value="1"/>
  <variable index="10384" value="1"/>
  <variable index="10570" value="1"/>
  <variable index="10776" value="1"/>
  <variable index="10913" value="1"/>
  <variable index="10983" value="1"/>
  <variable index="11125" value="1"/>
  <variable index="11341" value="1"/>
  <variable index="11459" value="1"/>
  <variable index="11573" value="1"/>
  <variable index="11819" value="1"/>
  <variable index="12005" value="1"/>
  <variable index="12066" value="1"/>
  <variable index="12208" value="1"/>
  <variable index="12374" value="1"/>
  <variable index="12500" value="1"/>
  <variable index="12641" value="1"/>
  <variable index="12845" value="1"/>
  <variable index="12928" value="1"/>
  <variable index="13167" value="1"/>
  <variable index="13323" value="1"/>
  <variable index="13413" value="1"/>
  <variable index="13556" value="1"/>
  <variable index="13707" value="1"/>
  <variable index="13909" value="1"/>
  <variable index="14042" value="1"/>
  <variable index="14224" value="1"/>
  <variable index="14375" value="1"/>
  <variable index="14520" value="1"/>
  <variable index="14627" value="1"/>
  <variable index="14847" value="1"/>
  <variable index="15003" value="1"/>
  <variable index="15079" value="1"/>
  <variable index="15204" value="1"/>
  <variable index="15329" value="1"/>
  <variable index="15471" value="1"/>
  <variable index="15688" value="1"/>
  <variable index="15879" value="1"/>
  <variable index="15916" value="1"/>
  <variable index="16096" value="1"/>
  <variable index="16332" value="1"/>
  <variable index="16464" value="1"/>
  <variable index="16634" value="1"/>
  <variable index="16695" value="1"/>
  <variable index="16902" value="1"/>
  <variable index="17094" value="1"/>
  <variable index="17230" value="1"/>
  <variable index="17381" value="1"/>
  <variable index="17551" value="1"/>
  <variable index="17677" value="1"/>
  <variable index="17863" value="1"/>
  <variable index="17918" value="1"/>
  <variable index="18093" value="1"/>
  <variable index="18291" value="1"/>
  <variable index="18443" value="1"/>
  <variable index="18540" value="1"/>
  <variable index="18643" value="1"/>
  <variable index="18851" value="1"/>
  <variable index="18942" value="1"/>
  <variable index="19157" value="1"/>
  <variable index="19281" value="1"/>
  <variable index="19447" value="1"/>
  <variable index="19664" value="1"/>
  <variable index="19703" value="1"/>
  <variable index="19915" value="1"/>
  <variable index="20044" value="1"/>
  <variable index="20258" value="1"/>
  <variable index="20396" value="1"/>
  <variable index="20484" value="1"/>
  <variable index="20650" value="1"/>
  <variable index="20837" value="1"/>
  <variable index="20972" value="1"/>
  <variable index="21067" value="1"/>
  <variable index="21194" value="1"/>
  <variable index="21421" value="1"/>
  <variable index="21519" value="1"/>
  <variable index="21749" value="1"/>
  <variable index="21858" value="1"/>
  <variable index="22060" value="1"/>
  <variable index="22086" value="1"/>
  <variable index="22287" value="1"/>
  <variable index="22433" value="1"/>
  <variable index="22516" value="1"/>
  <variable index="22517" value="1"/>
  <variable index="22521" value="1"/>
  <variable index="22522" value="1"/>
  <variable index="22523" value="1"/>
  <variable index="22524" value="1"/>
  <variable index="22525" value="1"/>
  <variable index="22530" value="1"/>
  <variable index="22532" value="1240"/>
 </variables>
</CPLEXSolution>
